
Gurobi 9.0.1 (linux64) logging started Thu Apr 30 06:03:48 2020

Gurobi Optimizer version 9.0.1 build v9.0.1rc0 (linux64)
Optimize a model with 2234 rows, 2120 columns and 20112 nonzeros
Model fingerprint: 0xd6fa8c2f
Variable types: 0 continuous, 2120 integer (2106 binary)
Coefficient statistics:
  Matrix range     [1e+00, 7e+00]
  Objective range  [6e+00, 1e+02]
  Bounds range     [1e+00, 1e+00]
  RHS range        [1e+00, 1e+00]

User MIP start produced solution with objective 557 (0.01s)
Loaded user MIP start with objective 557

Presolve removed 1004 rows and 912 columns
Presolve time: 0.12s
Presolved: 1230 rows, 1208 columns, 11904 nonzeros
Variable types: 0 continuous, 1208 integer (1208 binary)

Root relaxation: objective 3.756915e+02, 885 iterations, 0.10 seconds

    Nodes    |    Current Node    |     Objective Bounds      |     Work
 Expl Unexpl |  Obj  Depth IntInf | Incumbent    BestBd   Gap | It/Node Time

     0     0  375.69153    0  323  557.00000  375.69153  32.6%     -    0s
     0     0  388.71776    0  329  557.00000  388.71776  30.2%     -    0s
     0     0  392.90073    0  321  557.00000  392.90073  29.5%     -    0s
     0     0  393.11576    0  322  557.00000  393.11576  29.4%     -    0s
     0     0  393.12832    0  321  557.00000  393.12832  29.4%     -    0s
     0     0  393.12833    0  319  557.00000  393.12833  29.4%     -    0s
     0     0  398.66094    0  333  557.00000  398.66094  28.4%     -    1s
     0     0  399.55934    0  326  557.00000  399.55934  28.3%     -    1s
     0     0  399.58489    0  333  557.00000  399.58489  28.3%     -    1s
     0     0  405.23441    0  321  557.00000  405.23441  27.2%     -    1s
     0     0  405.43713    0  320  557.00000  405.43713  27.2%     -    1s
     0     0  405.44560    0  318  557.00000  405.44560  27.2%     -    1s
     0     0  406.16705    0  320  557.00000  406.16705  27.1%     -    1s
     0     0  406.17659    0  319  557.00000  406.17659  27.1%     -    1s
     0     0  406.55058    0  332  557.00000  406.55058  27.0%     -    1s
     0     0  406.58255    0  324  557.00000  406.58255  27.0%     -    1s
     0     0  406.59110    0  326  557.00000  406.59110  27.0%     -    2s
     0     0  408.13374    0  335  557.00000  408.13374  26.7%     -    2s
     0     0  408.34324    0  327  557.00000  408.34324  26.7%     -    2s
     0     0  408.35061    0  323  557.00000  408.35061  26.7%     -    2s
     0     0  408.51163    0  324  557.00000  408.51163  26.7%     -    2s
     0     0  408.53536    0  330  557.00000  408.53536  26.7%     -    2s
     0     0  408.53925    0  328  557.00000  408.53925  26.7%     -    2s
     0     0  409.95243    0  346  557.00000  409.95243  26.4%     -    2s
     0     0  409.98875    0  346  557.00000  409.98875  26.4%     -    2s
     0     0  409.99026    0  344  557.00000  409.99026  26.4%     -    2s
     0     0  410.19547    0  339  557.00000  410.19547  26.4%     -    2s
     0     0  410.22874    0  342  557.00000  410.22874  26.4%     -    2s
     0     0  410.23202    0  345  557.00000  410.23202  26.3%     -    2s
     0     0  410.41843    0  342  557.00000  410.41843  26.3%     -    2s
     0     0  410.43021    0  339  557.00000  410.43021  26.3%     -    2s
     0     0  411.22416    0  330  557.00000  411.22416  26.2%     -    2s
     0     0  411.38162    0  335  557.00000  411.38162  26.1%     -    2s
     0     0  411.39387    0  335  557.00000  411.39387  26.1%     -    2s
     0     0  411.40980    0  340  557.00000  411.40980  26.1%     -    3s
     0     0  411.42024    0  337  557.00000  411.42024  26.1%     -    3s
     0     0  411.47168    0  335  557.00000  411.47168  26.1%     -    3s
     0     0  411.47168    0  333  557.00000  411.47168  26.1%     -    3s
     0     2  411.65676    0  333  557.00000  411.65676  26.1%     -    3s
    19    21  460.31628   10  275  557.00000  418.80735  24.8%   383    5s
   177   128  481.66636    7  231  557.00000  434.52930  22.0%   175   10s
   340   193  532.51218   12  190  557.00000  441.11522  20.8%   159   15s
*  389   196              15     552.0000000  442.26861  19.9%   148   16s
H  392   187                     547.0000000  444.50756  18.7%   149   16s
*  397   159              13     537.0000000  444.50756  17.2%   148   16s
*  436   150              11     531.0000000  444.79488  16.2%   142   16s
H  517   178                     528.0000000  448.93762  15.0%   140   19s
   540   185  513.11682   11  238  528.00000  450.47043  14.7%   140   20s
   743   223  501.00398   14  246  528.00000  459.92610  12.9%   134   25s
   976   250  521.92640   23  225  528.00000  471.51221  10.7%   124   30s
  1215   264  525.95165   15  214  528.00000  476.06460  9.84%   120   35s
  1509   264  524.02828   18  213  528.00000  483.25245  8.47%   112   40s
  1808   245  515.45139   15  193  528.00000  490.60075  7.08%   107   45s
  2026   208     cutoff   27       528.00000  498.40526  5.61%   104   50s

Cutting planes:
  Cover: 5
  MIR: 2
  Inf proof: 9
  Zero half: 26
  Mod-K: 1
  RLT: 197

Explored 2373 nodes (232503 simplex iterations) in 53.36 seconds
Thread count was 1 (of 40 available processors)

Solution count 6: 528 531 537 ... 557

Optimal solution found (tolerance 1.00e-04)
Best objective 5.280000000000e+02, best bound 5.280000000000e+02, gap 0.0000%

User-callback calls 11941, time in user-callback 0.01 sec
